c User generated cnf file
p cnf 8 22
3 -4 1 0 
2 5 -3 0 
1 -1 3 0 
6 -4 4 0 
3 3 -6 0 
8 -1 8 0 
2 -2 2 0 
3 -7 6 0 
8 8 -2 0 
4 -8 2 0 
8 -3 4 0 
8 2 -8 0 
8 -2 8 0 
5 5 -2 0 
3 -4 6 0 
4 -3 6 0 
7 7 -8 0 
4 -7 3 0 
7 -3 1 0 
5 -8 2 0 
2 -7 2 0 
4 5 -5 0 
